WARNING: for repeatability, setting FPU to use double precision
============================[ Problem Statistics ]=============================
|                                                                             |
|  Number of variables:           100                                         |
|  Number of clauses:             449                                         |
|  Parse time:                   0.00 s                                       |
|  Eliminated clauses:           0.00 Mb                                      |
|  Simplification time:          0.00 s                                       |
|                                                                             |
============================[ Search Statistics ]==============================
| Conflicts |          ORIGINAL         |          LEARNT          | Progress |
|           |    Vars  Clauses Literals |    Limit  Clauses Lit/Cl |          |
===============================================================================
|       100 |      95      445     1368 |      163      100      7 |  0.010 % |
===============================================================================
restarts              : 2
conflicts             : 129            (53372 /sec)
decisions             : 176            (0.00 % random) (72818 /sec)
propagations          : 3043           (1258999 /sec)
conflict literals     : 940            (11.57 % deleted)
Memory used           : 13.00 MB
CPU time              : 0.002417 s

SATISFIABLE
